c description: Tseitin formula on , with odd charge
c generator: CNFgen (0.9.0)
c copyright: (C) 2012-2020 Massimo Lauria <massimo.lauria@uniroma1.it>
c url: https://massimolauria.net/cnfgen
c
p cnf 40 186
1 2 3 4 5 0
1 2 3 -4 -5 0
1 2 -3 4 -5 0
1 2 -3 -4 5 0
1 -2 3 4 -5 0
1 -2 3 -4 5 0
1 -2 -3 4 5 0
1 -2 -3 -4 -5 0
-1 2 3 4 -5 0
-1 2 3 -4 5 0
-1 2 -3 4 5 0
-1 2 -3 -4 -5 0
-1 -2 3 4 5 0
-1 -2 3 -4 -5 0
-1 -2 -3 4 -5 0
-1 -2 -3 -4 5 0
1 6 7 -8 0
1 6 -7 8 0
1 -6 7 8 0
1 -6 -7 -8 0
-1 6 7 8 0
-1 6 -7 -8 0
-1 -6 7 -8 0
-1 -6 -7 8 0
9 10 -11 0
9 -10 11 0
-9 10 11 0
-9 -10 -11 0
2 9 12 -13 0
2 9 -12 13 0
2 -9 12 13 0
2 -9 -12 -13 0
-2 9 12 13 0
-2 9 -12 -13 0
-2 -9 12 -13 0
-2 -9 -12 13 0
14 15 16 17 -18 0
14 15 16 -17 18 0
14 15 -16 17 18 0
14 15 -16 -17 -18 0
14 -15 16 17 18 0
14 -15 16 -17 -18 0
14 -15 -16 17 -18 0
14 -15 -16 -17 18 0
-14 15 16 17 18 0
-14 15 16 -17 -18 0
-14 15 -16 17 -18 0
-14 15 -16 -17 18 0
-14 -15 16 17 -18 0
-14 -15 16 -17 18 0
-14 -15 -16 17 18 0
-14 -15 -16 -17 -18 0
14 19 20 21 -22 0
14 19 20 -21 22 0
14 19 -20 21 22 0
14 19 -20 -21 -22 0
14 -19 20 21 22 0
14 -19 20 -21 -22 0
14 -19 -20 21 -22 0
14 -19 -20 -21 22 0
-14 19 20 21 22 0
-14 19 20 -21 -22 0
-14 19 -20 21 -22 0
-14 19 -20 -21 22 0
-14 -19 20 21 -22 0
-14 -19 20 -21 22 0
-14 -19 -20 21 22 0
-14 -19 -20 -21 -22 0
3 23 24 25 -26 0
3 23 24 -25 26 0
3 23 -24 25 26 0
3 23 -24 -25 -26 0
3 -23 24 25 26 0
3 -23 24 -25 -26 0
3 -23 -24 25 -26 0
3 -23 -24 -25 26 0
-3 23 24 25 26 0
-3 23 24 -25 -26 0
-3 23 -24 25 -26 0
-3 23 -24 -25 26 0
-3 -23 24 25 -26 0
-3 -23 24 -25 26 0
-3 -23 -24 25 26 0
-3 -23 -24 -25 -26 0
15 19 27 -28 0
15 19 -27 28 0
15 -19 27 28 0
15 -19 -27 -28 0
-15 19 27 28 0
-15 19 -27 -28 0
-15 -19 27 -28 0
-15 -19 -27 28 0
12 16 23 -29 0
12 16 -23 29 0
12 -16 23 29 0
12 -16 -23 -29 0
-12 16 23 29 0
-12 16 -23 -29 0
-12 -16 23 -29 0
-12 -16 -23 29 0
4 24 30 -31 0
4 24 -30 31 0
4 -24 30 31 0
4 -24 -30 -31 0
-4 24 30 31 0
-4 24 -30 -31 0
-4 -24 30 -31 0
-4 -24 -30 31 0
6 30 -32 0
6 -30 32 0
-6 30 32 0
-6 -30 -32 0
7 10 17 33 -34 0
7 10 17 -33 34 0
7 10 -17 33 34 0
7 10 -17 -33 -34 0
7 -10 17 33 34 0
7 -10 17 -33 -34 0
7 -10 -17 33 -34 0
7 -10 -17 -33 34 0
-7 10 17 33 34 0
-7 10 17 -33 -34 0
-7 10 -17 33 -34 0
-7 10 -17 -33 34 0
-7 -10 17 33 -34 0
-7 -10 17 -33 34 0
-7 -10 -17 33 34 0
-7 -10 -17 -33 -34 0
20 31 33 -35 0
20 31 -33 35 0
20 -31 33 35 0
20 -31 -33 -35 0
-20 31 33 35 0
-20 31 -33 -35 0
-20 -31 33 -35 0
-20 -31 -33 35 0
32 36 -37 0
32 -36 37 0
-32 36 37 0
-32 -36 -37 0
25 27 38 -39 0
25 27 -38 39 0
25 -27 38 39 0
25 -27 -38 -39 0
-25 27 38 39 0
-25 27 -38 -39 0
-25 -27 38 -39 0
-25 -27 -38 39 0
8 13 18 36 -38 0
8 13 18 -36 38 0
8 13 -18 36 38 0
8 13 -18 -36 -38 0
8 -13 18 36 38 0
8 -13 18 -36 -38 0
8 -13 -18 36 -38 0
8 -13 -18 -36 38 0
-8 13 18 36 38 0
-8 13 18 -36 -38 0
-8 13 -18 36 -38 0
-8 13 -18 -36 38 0
-8 -13 18 36 -38 0
-8 -13 18 -36 38 0
-8 -13 -18 36 38 0
-8 -13 -18 -36 -38 0
21 -40 0
-21 40 0
5 22 -40 0
5 -22 40 0
-5 22 40 0
-5 -22 -40 0
26 29 34 -39 0
26 29 -34 39 0
26 -29 34 39 0
26 -29 -34 -39 0
-26 29 34 39 0
-26 29 -34 -39 0
-26 -29 34 -39 0
-26 -29 -34 39 0
11 28 35 -37 0
11 28 -35 37 0
11 -28 35 37 0
11 -28 -35 -37 0
-11 28 35 37 0
-11 28 -35 -37 0
-11 -28 35 -37 0
-11 -28 -35 37 0